Route #1: 1 52 17 4 45 33 18 1 
Route #2: 1 35 53 28 14 55 14 16 6 30 1 
Route #3: 1 5 46 6 37 38 6 48 22 49 31 1 
Route #4: 1 54 15 54 20 54 36 9 14 47 1 
Route #5: 1 13 33 10 40 11 39 12 54 8 27 1 
Route #6: 1 3 29 23 2 43 2 7 1 
Route #7: 1 17 34 2 44 42 24 50 17 1 
Route #8: 1 41 33 26 19 51 33 1 
Cost 709.0
